2025-10-18 23:48:09,925 - INFO - 📌 第一个 epoch：默认所有模块使用 checkpoint
2025-10-18 23:48:11,046 - INFO - Epoch 1 completed in 1.125311 seconds
2025-10-18 23:48:11,533 - INFO - torch.cuda.max_memory_reserved() : 7.45703125
2025-10-18 23:48:12,137 - INFO - 
[🔁 拟合反向传播时间模型]
2025-10-18 23:48:12,138 - INFO - 总反向传播时间: 0.599242s
2025-10-18 23:48:12,138 - INFO - 拟合模型: backward_total ≈ 2 × (A + B) + b
2025-10-18 23:48:12,138 - INFO - A = 0.944399, B = 0.018786, b = -0.363944s
2025-10-18 23:48:12,160 - INFO - Set parameter LicenseID to value 2706656
2025-10-18 23:48:12,165 - INFO - Set parameter LogToConsole to value 1
2025-10-18 23:48:12,165 - INFO - Set parameter LogFile to value ""
2025-10-18 23:48:12,165 - INFO - Set parameter Threads to value 12
2025-10-18 23:48:12,165 - INFO - Set parameter TimeLimit to value 3600
2025-10-18 23:48:12,165 - INFO - Set parameter OptimalityTol to value 0.0001
2025-10-18 23:48:12,165 - INFO - Set parameter IntFeasTol to value 1e-05
2025-10-18 23:48:12,166 - INFO - Set parameter StartNodeLimit to value 10000000
2025-10-18 23:48:12,222 - INFO - Set parameter TimeLimit to value 3600
2025-10-18 23:48:12,222 - INFO - 
2025-10-18 23:48:12,222 - INFO - 
2025-10-18 23:48:12,222 - INFO - Restarting solve
2025-10-18 23:48:12,222 - INFO - 
2025-10-18 23:48:12,222 - INFO - 
2025-10-18 23:48:12,224 - INFO - Gurobi Optimizer version 12.0.3 build v12.0.3rc0 (linux64 - "Ubuntu 20.04.6 LTS")
2025-10-18 23:48:12,224 - INFO - 
2025-10-18 23:48:12,224 - INFO - CPU model: Intel(R) Xeon(R) Platinum 8260 CPU @ 2.40GHz, instruction set [SSE2|AVX|AVX2|AVX512]
2025-10-18 23:48:12,224 - INFO - Thread count: 48 physical cores, 96 logical processors, using up to 12 threads
2025-10-18 23:48:12,224 - INFO - 
2025-10-18 23:48:12,224 - INFO - Non-default parameters:
2025-10-18 23:48:12,224 - INFO - TimeLimit  3600
2025-10-18 23:48:12,224 - INFO - OptimalityTol  0.0001
2025-10-18 23:48:12,224 - INFO - StartNodeLimit  10000000
2025-10-18 23:48:12,224 - INFO - Threads  12
2025-10-18 23:48:12,224 - INFO - 
2025-10-18 23:48:12,224 - INFO - Optimize a model with 5603 rows, 3584 columns and 15200 nonzeros
2025-10-18 23:48:12,224 - INFO - Model fingerprint: 0x5eba2dcf
2025-10-18 23:48:12,224 - INFO - Variable types: 1024 continuous, 2560 integer (2560 binary)
2025-10-18 23:48:12,225 - INFO - Coefficient statistics:
2025-10-18 23:48:12,225 - INFO -   Matrix range     [1e+00, 2e+15]
2025-10-18 23:48:12,225 - INFO -   Objective range  [5e+04, 2e+06]
2025-10-18 23:48:12,225 - INFO -   Bounds range     [1e+00, 1e+16]
2025-10-18 23:48:12,225 - INFO -   RHS range        [1e+00, 1e+16]
2025-10-18 23:48:12,225 - INFO - Warning: Model contains large matrix coefficient range
2025-10-18 23:48:12,225 - INFO - Warning: Model contains large rhs
2025-10-18 23:48:12,225 - INFO - Warning: Model contains large bounds
2025-10-18 23:48:12,225 - INFO -          Consider reformulating model or setting NumericFocus parameter
2025-10-18 23:48:12,225 - INFO -          to avoid numerical issues.
2025-10-18 23:48:12,239 - INFO - Presolve removed 4283 rows and 1964 columns
2025-10-18 23:48:12,239 - INFO - Presolve time: 0.01s
2025-10-18 23:48:12,239 - INFO - Presolved: 1320 rows, 1620 columns, 4514 nonzeros
2025-10-18 23:48:12,241 - INFO - Variable types: 0 continuous, 1620 integer (1095 binary)
2025-10-18 23:48:12,251 - INFO - 
2025-10-18 23:48:12,251 - INFO - Root relaxation: objective 2.619472e+07, 434 iterations, 0.00 seconds (0.00 work units)
2025-10-18 23:48:12,257 - INFO - 
2025-10-18 23:48:12,257 - INFO -     Nodes    |    Current Node    |     Objective Bounds      |     Work
2025-10-18 23:48:12,257 - INFO -  Expl Unexpl |  Obj  Depth IntInf | Incumbent    BestBd   Gap | It/Node Time
2025-10-18 23:48:12,257 - INFO - 
2025-10-18 23:48:12,257 - INFO -      0     0 2.6195e+07    0  103          - 2.6195e+07      -     -    0s
2025-10-18 23:48:12,259 - INFO - H    0     0                    2.695108e+07 2.6195e+07  2.81%     -    0s
2025-10-18 23:48:12,261 - INFO - H    0     0                    2.690566e+07 2.6195e+07  2.64%     -    0s
2025-10-18 23:48:12,293 - INFO -      0     0 2.6834e+07    0   99 2.6906e+07 2.6834e+07  0.27%     -    0s
2025-10-18 23:48:12,336 - INFO -      0     0 2.6890e+07    0   53 2.6906e+07 2.6890e+07  0.06%     -    0s
2025-10-18 23:48:12,346 - INFO -      0     0          -    0      2.6906e+07 2.6905e+07  0.00%     -    0s
2025-10-18 23:48:12,346 - INFO - 
2025-10-18 23:48:12,346 - INFO - Cutting planes:
2025-10-18 23:48:12,346 - INFO -   Cover: 6
2025-10-18 23:48:12,346 - INFO -   Clique: 7
2025-10-18 23:48:12,346 - INFO -   Relax-and-lift: 3
2025-10-18 23:48:12,346 - INFO - 
2025-10-18 23:48:12,346 - INFO - Explored 1 nodes (1147 simplex iterations) in 0.12 seconds (0.06 work units)
2025-10-18 23:48:12,347 - INFO - Thread count was 12 (of 96 available processors)
2025-10-18 23:48:12,347 - INFO - 
2025-10-18 23:48:12,347 - INFO - Solution count 4: 2.69057e+07 2.69511e+07 2.69619e+07 2.70073e+07 
2025-10-18 23:48:12,347 - INFO - 
2025-10-18 23:48:12,347 - INFO - Optimal solution found (tolerance 1.00e-04)
2025-10-18 23:48:12,347 - INFO - Best objective 2.690565600000e+07, best bound 2.690482417588e+07, gap 0.0031%
2025-10-18 23:48:12,357 - INFO - 规划前的显存GB：10.0
2025-10-18 23:48:12,357 - INFO - 规划后的显存GB：8.429425239562988
2025-10-18 23:48:12,357 - INFO - ✅ 最优策略：[1, 1, 1, 1, 1, 1, 1, 0, 0, 1, 0, 0, 0, 0, 0, 0]
2025-10-18 23:48:12,357 - INFO - 📌 checkpoint 的欧氏长度:, [957]
2025-10-18 23:48:12,357 - INFO - 📌 checkpoint 的余弦长度:, [119, 358, 478, 597, 717, 837, 957]
2025-10-18 23:48:12,357 - INFO - 💾 最终显存峰值：%.2f MB % 14191.99333190918
2025-10-18 23:48:12,358 - INFO - Epoch 2 completed in 0.823823 seconds
2025-10-18 23:48:12,358 - INFO - torch.cuda.max_memory_reserved() : 7.45703125
2025-10-18 23:48:12,824 - INFO - Epoch 3 completed in 0.465517 seconds
2025-10-18 23:48:12,824 - INFO - 
====================== [第1个 Epoch 收集统计数据] ======================
2025-10-18 23:48:12,824 - INFO - 
🔍 EUCLIDEAN modules:
2025-10-18 23:48:12,824 - INFO - [Shapelet 119] forward_avg=0.017742s over 2 calls | peak=574.44MB | final=0.00MB
2025-10-18 23:48:12,824 - INFO - [Shapelet 238] forward_avg=0.010363s over 2 calls | peak=1015.43MB | final=0.00MB
2025-10-18 23:48:12,824 - INFO - [Shapelet 358] forward_avg=0.016376s over 2 calls | peak=1333.82MB | final=0.00MB
2025-10-18 23:48:12,825 - INFO - [Shapelet 478] forward_avg=0.018790s over 2 calls | peak=1527.39MB | final=0.00MB
2025-10-18 23:48:12,825 - INFO - [Shapelet 597] forward_avg=0.018568s over 2 calls | peak=1593.80MB | final=0.00MB
2025-10-18 23:48:12,825 - INFO - [Shapelet 717] forward_avg=0.015796s over 2 calls | peak=1532.89MB | final=0.00MB
2025-10-18 23:48:12,825 - INFO - [Shapelet 837] forward_avg=0.014206s over 2 calls | peak=1346.26MB | final=0.00MB
2025-10-18 23:48:12,825 - INFO - [Shapelet 957] forward_avg=0.010579s over 2 calls | peak=1033.37MB | final=0.00MB
2025-10-18 23:48:12,825 - INFO - 
🔍 COSINE modules:
2025-10-18 23:48:12,825 - INFO - [Shapelet 119] forward_avg=0.001979s over 2 calls | peak=377.76MB | final=0.00MB
2025-10-18 23:48:12,825 - INFO - [Shapelet 238] forward_avg=0.003023s over 2 calls | peak=670.78MB | final=0.00MB
2025-10-18 23:48:12,825 - INFO - [Shapelet 358] forward_avg=0.005000s over 2 calls | peak=882.25MB | final=0.00MB
2025-10-18 23:48:12,826 - INFO - [Shapelet 478] forward_avg=0.006846s over 2 calls | peak=1010.33MB | final=0.00MB
2025-10-18 23:48:12,826 - INFO - [Shapelet 597] forward_avg=0.006820s over 2 calls | peak=1052.88MB | final=0.00MB
2025-10-18 23:48:12,826 - INFO - [Shapelet 717] forward_avg=0.004364s over 2 calls | peak=1012.70MB | final=0.00MB
2025-10-18 23:48:12,826 - INFO - [Shapelet 837] forward_avg=0.003904s over 2 calls | peak=885.75MB | final=0.00MB
2025-10-18 23:48:12,826 - INFO - [Shapelet 957] forward_avg=0.003043s over 2 calls | peak=676.20MB | final=0.00MB
2025-10-18 23:48:12,826 - INFO - 
🔍 CROSS modules:
2025-10-18 23:48:12,826 - INFO - [Shapelet 119] forward_avg=0.000562s over 2 calls
2025-10-18 23:48:12,826 - INFO - [Shapelet 238] forward_avg=0.000454s over 2 calls
2025-10-18 23:48:12,826 - INFO - [Shapelet 358] forward_avg=0.000586s over 2 calls
2025-10-18 23:48:12,826 - INFO - [Shapelet 478] forward_avg=0.000726s over 2 calls
2025-10-18 23:48:12,827 - INFO - [Shapelet 597] forward_avg=0.000658s over 2 calls
2025-10-18 23:48:12,827 - INFO - [Shapelet 717] forward_avg=0.000562s over 2 calls
2025-10-18 23:48:12,827 - INFO - [Shapelet 837] forward_avg=0.000606s over 2 calls
2025-10-18 23:48:12,827 - INFO - [Shapelet 957] forward_avg=0.000542s over 2 calls
2025-10-18 23:48:12,827 - INFO - 
💾 模型第一次反向传播阶段的显存峰值（所有模块中的最大值）: 6805.63 MB
2025-10-18 23:48:12,827 - INFO - 
💾 模型初始显存: 9.69 MB
2025-10-18 23:48:12,827 - INFO - =======================================================================

2025-10-18 23:48:12,828 - INFO - torch.cuda.max_memory_reserved() : 9.228515625
2025-10-18 23:48:13,307 - INFO - Epoch 4 completed in 0.478256 seconds
2025-10-18 23:48:13,307 - INFO - torch.cuda.max_memory_reserved() : 9.228515625
2025-10-18 23:48:13,804 - INFO - Epoch 5 completed in 0.495724 seconds
2025-10-18 23:48:13,805 - INFO - torch.cuda.max_memory_reserved() : 9.228515625
2025-10-18 23:48:14,258 - INFO - Epoch 6 completed in 0.451982 seconds
2025-10-18 23:48:14,259 - INFO - torch.cuda.max_memory_reserved() : 9.228515625
2025-10-18 23:48:14,697 - INFO - Epoch 7 completed in 0.436865 seconds
2025-10-18 23:48:14,698 - INFO - torch.cuda.max_memory_reserved() : 9.228515625
2025-10-18 23:48:15,190 - INFO - Epoch 8 completed in 0.490972 seconds
2025-10-18 23:48:15,191 - INFO - torch.cuda.max_memory_reserved() : 9.228515625
2025-10-18 23:48:15,688 - INFO - Epoch 9 completed in 0.495849 seconds
2025-10-18 23:48:15,689 - INFO - torch.cuda.max_memory_reserved() : 9.228515625
2025-10-18 23:48:16,175 - INFO - Epoch 10 completed in 0.484494 seconds
2025-10-18 23:48:16,614 - INFO - torch.cuda.max_memory_reserved() : 9.228515625
2025-10-18 23:48:16,614 - INFO - !!!采用策略后的几个epoch 平均时间:0.4749573767185211
2025-10-18 23:48:16,614 - INFO - 



